c K to QBF translator. (C)Rice University.
c From input file 5-1.lwb
p cnf 138 343
e 138 1 137 0
a 34 0
e 42 136 12 11 10 9 8 7 6 5 4 3 2 47 48 135 0
a 35 36 0
e 52 134 21 20 19 18 17 16 15 14 13 55 61 64 67 70 73 76 79 81 82 133 0
a 37 38 0
e 85 132 27 26 25 24 23 22 88 92 95 98 101 104 106 107 131 0
a 39 40 0
e 110 130 31 30 29 28 113 116 119 121 122 129 0
a 41 0
e 123 128 33 32 125 126 127 124 120 117 118 115 114 112 111 108 109 105 102 103 100 99 97 96 94 93 90 91 89 87 86 83 84 80 77 78 74 75 72 71 69 68 66 65 63 62 57 60 58 59 56 54 53 49 50 51 46 43 44 45 0
138  0 
138 -137 -1  0 
137 -138  0 
1 -138  0 
-137 42 136  0 
-42 137  0 
-136 137  0 
-42 -34 -1  0 
34 42  0 
1 42  0 
136 -47 -48 -135  0 
47 -136  0 
48 -136  0 
135 -136  0 
-47 -34 46  0 
34 47  0 
-46 47  0 
46 -9 -43 -44 -45 -2 -11  0 
9 -46  0 
43 -46  0 
44 -46  0 
45 -46  0 
2 -46  0 
11 -46  0 
-43 4 6 8 11 10  0 
-4 43  0 
-6 43  0 
-8 43  0 
-11 43  0 
-10 43  0 
-44 3 5 12 10  0 
-3 44  0 
-5 44  0 
-12 44  0 
-10 44  0 
-45 3 7  0 
-3 45  0 
-7 45  0 
-48 -11 -12  0 
11 48  0 
12 48  0 
-135 52 134  0 
-52 135  0 
-134 135  0 
52 -49 -50 -51  0 
49 -52  0 
50 -52  0 
51 -52  0 
-49 -4 -35 36  0 
4 49  0 
35 49  0 
-36 49  0 
-50 -3 35 -36  0 
3 50  0 
-35 50  0 
36 50  0 
-51 -2 -35 -36  0 
2 51  0 
35 51  0 
36 51  0 
134 -55 -61 -64 -67 -70 -73 -76 -79 -81 -82 -133  0 
55 -134  0 
61 -134  0 
64 -134  0 
67 -134  0 
70 -134  0 
73 -134  0 
76 -134  0 
79 -134  0 
81 -134  0 
82 -134  0 
133 -134  0 
-55 54 21  0 
-54 55  0 
-21 55  0 
-54 -10 53  0 
10 54  0 
-53 54  0 
53 4 3 2  0 
-4 -53  0 
-3 -53  0 
-2 -53  0 
-61 57 60  0 
-57 61  0 
-60 61  0 
-57 -9 56  0 
9 57  0 
-56 57  0 
56 4 3 2  0 
-4 -56  0 
-3 -56  0 
-2 -56  0 
60 -58 -59  0 
58 -60  0 
59 -60  0 
-58 13 15  0 
-13 58  0 
-15 58  0 
-59 14 21  0 
-14 59  0 
-21 59  0 
-64 63 20 19  0 
-63 64  0 
-20 64  0 
-19 64  0 
-63 -8 62  0 
8 63  0 
-62 63  0 
62 4 3 2  0 
-4 -62  0 
-3 -62  0 
-2 -62  0 
-67 66 16  0 
-66 67  0 
-16 67  0 
-66 -7 65  0 
7 66  0 
-65 66  0 
65 4 3 2  0 
-4 -65  0 
-3 -65  0 
-2 -65  0 
-70 69 14  0 
-69 70  0 
-14 70  0 
-69 -6 68  0 
6 69  0 
-68 69  0 
68 4 3 2  0 
-4 -68  0 
-3 -68  0 
-2 -68  0 
-73 72 13  0 
-72 73  0 
-13 73  0 
-72 -5 71  0 
5 72  0 
-71 72  0 
71 4 3 2  0 
-4 -71  0 
-3 -71  0 
-2 -71  0 
-76 74 75  0 
-74 76  0 
-75 76  0 
-74 -35 36  0 
35 74  0 
-36 74  0 
75 -18 -21 -13  0 
18 -75  0 
21 -75  0 
13 -75  0 
-79 77 78  0 
-77 79  0 
-78 79  0 
-77 35 -36  0 
-35 77  0 
36 77  0 
78 -17 -20  0 
17 -78  0 
20 -78  0 
-81 80 19  0 
-80 81  0 
-19 81  0 
-80 -35 -36  0 
35 80  0 
36 80  0 
-82 -20 -21  0 
20 82  0 
21 82  0 
-133 85 132  0 
-85 133  0 
-132 133  0 
85 -83 -84  0 
83 -85  0 
84 -85  0 
-83 -14 37 -38  0 
14 83  0 
-37 83  0 
38 83  0 
-84 -13 -37 -38  0 
13 84  0 
37 84  0 
38 84  0 
132 -88 -92 -95 -98 -101 -104 -106 -107 -131  0 
88 -132  0 
92 -132  0 
95 -132  0 
98 -132  0 
101 -132  0 
104 -132  0 
106 -132  0 
107 -132  0 
131 -132  0 
-88 87 27  0 
-87 88  0 
-27 88  0 
-87 -19 86  0 
19 87  0 
-86 87  0 
86 14 13  0 
-14 -86  0 
-13 -86  0 
-92 90 91 24  0 
-90 92  0 
-91 92  0 
-24 92  0 
-90 -18 89  0 
18 90  0 
-89 90  0 
89 14 13  0 
-14 -89  0 
-13 -89  0 
91 -27 -22  0 
27 -91  0 
22 -91  0 
-95 94 26 25  0 
-94 95  0 
-26 95  0 
-25 95  0 
-94 -17 93  0 
17 94  0 
-93 94  0 
93 14 13  0 
-14 -93  0 
-13 -93  0 
-98 97 23 27  0 
-97 98  0 
-23 98  0 
-27 98  0 
-97 -16 96  0 
16 97  0 
-96 97  0 
96 14 13  0 
-14 -96  0 
-13 -96  0 
-101 100 25  0 
-100 101  0 
-25 101  0 
-100 -15 99  0 
15 100  0 
-99 100  0 
99 14 13  0 
-14 -99  0 
-13 -99  0 
-104 102 103  0 
-102 104  0 
-103 104  0 
-102 37 -38  0 
-37 102  0 
38 102  0 
103 -27 -22  0 
27 -103  0 
22 -103  0 
-106 105 26  0 
-105 106  0 
-26 106  0 
-105 -37 -38  0 
37 105  0 
38 105  0 
-107 -26 -27  0 
26 107  0 
27 107  0 
-131 110 130  0 
-110 131  0 
-130 131  0 
110 -108 -109  0 
108 -110  0 
109 -110  0 
-108 -23 39 -40  0 
23 108  0 
-39 108  0 
40 108  0 
-109 -22 -39 -40  0 
22 109  0 
39 109  0 
40 109  0 
130 -113 -116 -119 -121 -122 -129  0 
113 -130  0 
116 -130  0 
119 -130  0 
121 -130  0 
122 -130  0 
129 -130  0 
-113 112 31  0 
-112 113  0 
-31 113  0 
-112 -25 111  0 
25 112  0 
-111 112  0 
111 23 22  0 
-23 -111  0 
-22 -111  0 
-116 115 30 29  0 
-115 116  0 
-30 116  0 
-29 116  0 
-115 -24 114  0 
24 115  0 
-114 115  0 
114 23 22  0 
-23 -114  0 
-22 -114  0 
-119 117 118  0 
-117 119  0 
-118 119  0 
-117 39 -40  0 
-39 117  0 
40 117  0 
118 -31 -28  0 
31 -118  0 
28 -118  0 
-121 120 30  0 
-120 121  0 
-30 121  0 
-120 -39 -40  0 
39 120  0 
40 120  0 
-122 -30 -31  0 
30 122  0 
31 122  0 
-129 123 128  0 
-123 129  0 
-128 129  0 
-123 -41 -28  0 
41 123  0 
28 123  0 
128 -125 -126 -127  0 
125 -128  0 
126 -128  0 
127 -128  0 
-125 124 33  0 
-124 125  0 
-33 125  0 
-124 -29 -28  0 
29 124  0 
28 124  0 
-126 -41 32  0 
41 126  0 
-32 126  0 
-127 -32 -33  0 
32 127  0 
33 127  0 
